58743.79 0
0 18 19 20 21 24 25 23 22 43 44 45 46 47 48 49 50 51 52 53 54 55 56 57 42 58 59 60 61 62 63 64 65 66 67 68 69 70 71 41 40 39 38 37 34 33 31 32 35 36 13 12 11 10 9 8 7 6 131 130 119 118 117 129 128 127 126 125 124 123 122 121 120 102 103 104 105 101 106 107 95 96 97 98 100 99 73 72 74 75 76 77 93 94 108 109 110 111 92 112 113 86 87 88 89 91 90 79 78 80 81 82 83 84 85 114 115 116 142 143 141 140 139 138 137 136 135 134 133 132 14 15 30 29 28 27 26 17 16 5 4 3 2 1